Instance name: /home/cuong/CLionProjects/uMV-FSTSP/50_dis_rand_ins/v4
Write arg val: 1

drone speed: 1 miles/minute
uav non-eligible customer: 11 
Printing tau:
0 15.0569 53.5392 53.5209 61.1015 37.613 49.1115 61.0901 69.344 96.5199 107.723 0 
15.0569 0 46.1335 46.1152 53.6958 30.2073 41.7058 57.7486 63.2431 89.1142 100.318 15.0569 
53.5392 46.1335 0 5.982 57.363 54.2553 69.7869 94.5001 99.9947 61.8891 54.1842 53.5392 
53.5209 46.1152 5.982 0 51.381 48.2733 63.8049 88.5181 94.0127 55.9071 54.2025 53.5209 
61.1015 53.6958 57.363 51.381 0 23.4884 12.424 37.1372 42.6317 35.4184 46.6219 61.1015 
37.613 30.2073 54.2553 48.2733 23.4884 0 15.5317 40.2449 45.7394 58.9069 70.1103 37.613 
49.1115 41.7058 69.7869 63.8049 12.424 15.5317 0 24.7132 30.2078 47.4084 58.6119 49.1115 
61.0901 57.7486 94.5001 88.5181 37.1372 40.2449 24.7132 0 8.25396 35.4298 46.6333 61.0901 
69.344 63.2431 99.9947 94.0127 42.6317 45.7394 30.2078 8.25396 0 38.1056 49.5444 69.344 
96.5199 89.1142 61.8891 55.9071 35.4184 58.9069 47.4084 35.4298 38.1056 0 11.4388 96.5199 
107.723 100.318 54.1842 54.2025 46.6219 70.1103 58.6119 46.6333 49.5444 11.4388 0 107.723 
0 0 0 0 0 0 0 0 0 0 0 0 
Printing tau_prime:
0 2.373 10.5362 9.96449 8.67668 5.33053 7.39616 10.54 11.9419 13.7242 15.2356 0 
2.373 0 8.34143 7.84012 8.13396 4.93733 7.52424 11.1507 12.5188 13.0945 14.3187 2.373 
10.5362 8.34143 0 0.845986 8.18254 7.99659 9.88921 13.4069 14.3169 10.6561 10.4701 10.5362 
9.96449 7.84012 0.845986 0 7.34502 7.188 9.0449 12.564 13.4824 9.97449 9.91498 9.96449 
8.67668 8.13396 8.18254 7.34502 0 3.35071 2.44178 5.25199 6.14069 5.04966 6.66541 8.67668 
5.33053 4.93733 7.99659 7.188 3.35071 0 2.73293 6.58911 7.87268 8.40035 9.92969 5.33053 
7.39616 7.52424 9.88921 9.0449 2.44178 2.73293 0 3.88389 5.14173 6.79696 8.72841 7.39616 
10.54 11.1507 13.4069 12.564 5.25199 6.58911 3.88389 0 1.40227 6.80992 9.07199 10.54 
11.9419 12.5188 14.3169 13.4824 6.14069 7.87268 5.14173 1.40227 0 6.61901 8.86298 11.9419 
13.7242 13.0945 10.6561 9.97449 5.04966 8.40035 6.79696 6.80992 6.61901 0 2.26435 13.7242 
15.2356 14.3187 10.4701 9.91498 6.66541 9.92969 8.72841 9.07199 8.86298 2.26435 0 15.2356 
0 0 0 0 0 0 0 0 0 0 0 0 
Version identifier: 22.1.1.0 | 2022-11-28 | 9160aff4d
CPXPARAM_MIP_Tolerances_Integrality              0
Tried aggregator 1 time.
MIP Presolve eliminated 1 rows and 12 columns.
MIP Presolve modified 20 coefficients.
Reduced MIP has 122 rows, 120 columns, and 510 nonzeros.
Reduced MIP has 110 binaries, 0 generals, 0 SOSs, and 0 indicators.
Presolve time = 0.00 sec. (0.27 ticks)
Found incumbent of value 559.399800 after 0.00 sec. (0.75 ticks)
Probing time = 0.00 sec. (0.26 ticks)
Cover probing fixed 0 vars, tightened 10 bounds.
Tried aggregator 1 time.
Detecting symmetries...
MIP Presolve eliminated 10 rows and 0 columns.
MIP Presolve modified 180 coefficients.
Reduced MIP has 112 rows, 120 columns, and 490 nonzeros.
Reduced MIP has 110 binaries, 0 generals, 0 SOSs, and 0 indicators.
Presolve time = 0.00 sec. (0.35 ticks)
Probing time = 0.00 sec. (0.26 ticks)
Clique table members: 67.
MIP emphasis: balance optimality and feasibility.
MIP search method: dynamic search.
Parallel mode: deterministic, using up to 20 threads.
Root relaxation solution time = 0.00 sec. (0.20 ticks)

        Nodes                                         Cuts/
   Node  Left     Objective  IInf  Best Integer    Best Bound    ItCnt     Gap

*     0+    0                          559.3998        0.0000           100.00%
      0     0      157.7214    19      559.3998      157.7214       25   71.81%
*     0+    0                          277.4119      157.7214            43.15%
      0     0      256.9773    18      277.4119      Cuts: 33       43    7.37%
      0     0      256.9773    18      277.4119      Cuts: 25       52    7.37%
*     0+    0                          277.3753      256.9773             7.35%
*     0+    0                          277.3753      256.9773             7.35%
Detecting symmetries...

Repeating presolve.
Tried aggregator 1 time.
MIP Presolve eliminated 32 rows and 45 columns.
Reduced MIP has 80 rows, 75 columns, and 304 nonzeros.
Reduced MIP has 65 binaries, 0 generals, 0 SOSs, and 0 indicators.
Presolve time = 0.00 sec. (0.17 ticks)
Probing time = 0.00 sec. (0.12 ticks)
Cover probing fixed 0 vars, tightened 13 bounds.
Tried aggregator 1 time.
Detecting symmetries...
MIP Presolve modified 98 coefficients.
Reduced MIP has 80 rows, 75 columns, and 304 nonzeros.
Reduced MIP has 65 binaries, 0 generals, 0 SOSs, and 0 indicators.
Presolve time = 0.00 sec. (0.19 ticks)
Represolve time = 0.00 sec. (0.64 ticks)
Probing time = 0.00 sec. (0.12 ticks)
Cover probing fixed 0 vars, tightened 3 bounds.
Clique table members: 51.
MIP emphasis: balance optimality and feasibility.
MIP search method: dynamic search.
Parallel mode: deterministic, using up to 20 threads.
Root relaxation solution time = 0.00 sec. (0.18 ticks)

        Nodes                                         Cuts/
   Node  Left     Objective  IInf  Best Integer    Best Bound    ItCnt     Gap

*     0+    0                          277.3753      256.9773             7.35%
      0     0      256.9773    18      277.3753      256.9773       85    7.35%
      0     0      256.9773    18      277.3753      Cuts: 41      102    7.35%
      0     0      256.9773    18      277.3753      Cuts: 24      105    7.35%

Clique cuts applied:  3
Implied bound cuts applied:  2
Mixed integer rounding cuts applied:  4
Multi commodity flow cuts applied:  2
Lift and project cuts applied:  1
Gomory fractional cuts applied:  3

Root node processing (before b&c):
  Real time             =    0.12 sec. (9.70 ticks)
Parallel b&c, 20 threads:
  Real time             =    0.00 sec. (0.00 ticks)
  Sync time (average)   =    0.00 sec.
  Wait time (average)   =    0.00 sec.
                          ------------
Total (root+branch&cut) =    0.12 sec. (9.70 ticks)

TSP solution for this instance: 0 1 5 4 6 7 8 9 10 2 3 11 
12
Warmstart X[1][0] == 1
Warmstart X[2][1] == 1
Warmstart X[3][5] == 1
Warmstart X[4][4] == 1
Warmstart X[5][6] == 1
Warmstart X[6][7] == 1
Warmstart X[7][8] == 1
Warmstart X[8][9] == 1
Warmstart X[9][10] == 1
Warmstart X[10][2] == 1
Warmstart X[11][3] == 1
---------------------------------------------
Calculate max stage gap for sortie.... 
Stage gap of 4 with smallest length = 23.928 violated endurance constraint!
---------------------------------------------
Variable z[1][5] was set to 0.
Variable z[1][6] was set to 0.
Variable z[1][7] was set to 0.
Variable z[1][8] was set to 0.
Variable z[1][9] was set to 0.
Variable z[1][10] was set to 0.
Variable z[1][11] was set to 0.
Variable z[1][12] was set to 0.
Variable z[2][6] was set to 0.
Variable z[2][7] was set to 0.
Variable z[2][8] was set to 0.
Variable z[2][9] was set to 0.
Variable z[2][10] was set to 0.
Variable z[2][11] was set to 0.
Variable z[2][12] was set to 0.
Variable z[3][7] was set to 0.
Variable z[3][8] was set to 0.
Variable z[3][9] was set to 0.
Variable z[3][10] was set to 0.
Variable z[3][11] was set to 0.
Variable z[3][12] was set to 0.
Variable z[4][8] was set to 0.
Variable z[4][9] was set to 0.
Variable z[4][10] was set to 0.
Variable z[4][11] was set to 0.
Variable z[4][12] was set to 0.
Variable z[5][9] was set to 0.
Variable z[5][10] was set to 0.
Variable z[5][11] was set to 0.
Variable z[5][12] was set to 0.
Variable z[6][10] was set to 0.
Variable z[6][11] was set to 0.
Variable z[6][12] was set to 0.
Variable z[7][11] was set to 0.
Variable z[7][12] was set to 0.
Variable z[8][12] was set to 0.
Num constraint added = 0
Warning:  Output names have been modified due to duplicate names or characters invalid in LP format.
Version identifier: 22.1.1.0 | 2022-11-28 | 9160aff4d
CPXPARAM_TimeLimit                               200
CPXPARAM_MIP_Tolerances_Integrality              0
1 of 1 MIP starts provided solutions.
MIP start 'm1' defined initial solution with objective 277.3753.
Tried aggregator 2 times.
MIP Presolve eliminated 5641 rows and 1379 columns.
MIP Presolve modified 3629 coefficients.
Aggregator did 43 substitutions.
Reduced MIP has 1681 rows, 3354 columns, and 83880 nonzeros.
Reduced MIP has 3333 binaries, 0 generals, 0 SOSs, and 0 indicators.
Presolve time = 0.12 sec. (357.22 ticks)
Probing fixed 95 vars, tightened 0 bounds.
Probing changed sense of 4 constraints.
Probing time = 0.04 sec. (117.98 ticks)
Cover probing fixed 0 vars, tightened 22 bounds.
Tried aggregator 2 times.
Detecting symmetries...
MIP Presolve eliminated 68 rows and 96 columns.
MIP Presolve modified 318 coefficients.
Aggregator did 23 substitutions.
Reduced MIP has 1589 rows, 3235 columns, and 74398 nonzeros.
Reduced MIP has 3214 binaries, 0 generals, 0 SOSs, and 0 indicators.
Presolve time = 0.07 sec. (156.65 ticks)
Probing time = 0.00 sec. (5.61 ticks)
Clique table members: 9295.
MIP emphasis: balance optimality and feasibility.
MIP search method: dynamic search.
Parallel mode: deterministic, using up to 20 threads.
Root relaxation solution time = 0.18 sec. (373.21 ticks)

        Nodes                                         Cuts/
   Node  Left     Objective  IInf  Best Integer    Best Bound    ItCnt     Gap

*     0+    0                          277.3753       15.0569            94.57%
      0     0      131.8699   146      277.3753      131.8699       41   52.46%
*     0+    0                          272.7431      131.8699            51.65%
      0     0      134.0376   134      272.7431      Cuts: 14     3188   50.86%
*     0+    0                          260.2768      134.0376            48.50%
      0     0      137.3498   127      260.2768      Cuts: 56     5801   47.23%
      0     0      139.3184   191      260.2768      Cuts: 56     8301   46.47%
*     0+    0                          250.0773      139.3184            44.29%
      0     0  -1.00000e+75     0      250.0773      139.3184     8301   44.29%
      0     0      141.0609   225      250.0773      Cuts: 54    11680   43.59%
      0     0      141.1048   230      250.0773      Cuts: 67    12401   43.58%
Detecting symmetries...
      0     0      141.1884   208      250.0773      Cuts: 18    13085   43.54%
      0     0      141.1884   215      250.0773  ZeroHalf: 13    13345   43.54%
      0     0      141.1884   219      250.0773       Cuts: 5    13591   43.54%
*     0+    0                          245.3521      141.1884            42.45%
*     0+    0                          206.5097      141.1884            31.63%
*     0+    0                          203.5230      141.1884            30.63%
Detecting symmetries...
      0     2      141.1884   210      203.5230      149.8997    13591   26.35%
Elapsed time = 3.09 sec. (6106.02 ticks, tree = 0.02 MB, solutions = 7)
      1     3      145.1351   124      203.5230      149.8997    17305   26.35%
*     3+    1                          202.9432      149.8997            26.14%
      4     4      145.9255    95      202.9432      149.8997    21443   26.14%
      8     6    infeasible            202.9432      149.8997    34497   26.14%
      9     7      147.1553   186      202.9432      149.8997    35787   26.14%
     13    10      151.6777    81      202.9432      149.8997    43469   26.14%
    121    30      188.8422    71      202.9432      149.8997    58460   26.14%
    637    83    infeasible            202.9432      149.8997    76984   26.14%
*   861+    8                          167.1346      149.8997            10.31%
    997    23      158.2106    42      167.1346      149.8997   120898   10.31%
*  1022+   29                          166.9781      149.8997            10.23%
   1160    17      159.3992    83      166.9781      149.8997   139407   10.23%
   1263     3        cutoff            166.9781      151.3057   178542    9.39%
Elapsed time = 5.34 sec. (10111.33 ticks, tree = 0.03 MB, solutions = 10)

GUB cover cuts applied:  2
Clique cuts applied:  2
Cover cuts applied:  28
Implied bound cuts applied:  38
Mixed integer rounding cuts applied:  5
Zero-half cuts applied:  13
Gomory fractional cuts applied:  1

Root node processing (before b&c):
  Real time             =    3.01 sec. (5960.24 ticks)
Parallel b&c, 20 threads:
  Real time             =    2.35 sec. (4212.91 ticks)
  Sync time (average)   =    1.54 sec.
  Wait time (average)   =    0.00 sec.
                          ------------
Total (root+branch&cut) =    5.36 sec. (10173.15 ticks)
Feasible solution found!
Truck nodes:
Stage 1 at customer 0 with arrival time is: 0
Stage 1 at customer 0 with departure time is: 0
Stage 2 at customer 1 with arrival time is: 15.0569
Stage 2 at customer 1 with departure time is: 19.8776
Stage 3 at customer 5 with arrival time is: 50.0849
Stage 3 at customer 5 with departure time is: 51.0849
Stage 4 at customer 6 with arrival time is: 66.6166
Stage 4 at customer 6 with departure time is: 68.6166
Stage 5 at customer 4 with arrival time is: 81.0406
Stage 5 at customer 4 with departure time is: 83.0406
Stage 6 at customer 6 with arrival time is: 95.4646
Stage 6 at customer 6 with departure time is: 100.434
Stage 7 at customer 5 with arrival time is: 115.966
Stage 7 at customer 5 with departure time is: 116.966
Stage 8 at customer 1 with arrival time is: 147.173
Stage 8 at customer 1 with departure time is: 148.173
Stage 9 at customer 11 with arrival time is: 163.23
Stage 9 at customer 11 with departure time is: 166.978
Truck arcs:
Arc 1 connecting 0 and 1 with cost 15.0569 
Arc 2 connecting 1 and 5 with cost 30.2073 
Arc 3 connecting 5 and 6 with cost 15.5317 
Arc 4 connecting 6 and 4 with cost 12.424 
Arc 5 connecting 4 and 6 with cost 12.424 
Arc 6 connecting 6 and 5 with cost 15.5317 
Arc 7 connecting 5 and 1 with cost 30.2073 
Arc 8 connecting 1 and 11 with cost 15.0569 
Customer 2 served by drone.
Drone fly from 0 at stage 1 to serve 2 and then fly back to 1 at stage 2. 
Truck arcs during this sortie: 0--->1
Truck travel time from stage 1 to 2 is: 15.0569
Total drone travel time: 18.8776
Drone arrival time: 18.8776
Truck arrival time: 15.0569
Truck departure time = max(d/a, t/a) plus (sl/sr): 19.8776
Customer 3 served by drone.
Drone fly from 1 at stage 8 to serve 3 and then fly back to 11 at stage 9. 
Truck arcs during this sortie: 1--->0
Truck travel time from stage 8 to 9 is: 15.0569
Total drone travel time: 17.8046
Drone arrival time: 165.978
Truck arrival time: 163.23
Truck departure time = max(d/a, t/a) plus (sl/sr): 166.978
Customer 7 served by drone.
Drone fly from 6 at stage 4 to serve 7 and then fly back to 4 at stage 5. 
Truck arcs during this sortie: 6--->4
Truck travel time from stage 4 to 5 is: 12.424
Total drone travel time: 9.13588
Drone arrival time: 77.7525
Truck arrival time: 81.0406
Truck departure time = max(d/a, t/a) plus (sl/sr): 83.0406
Customer 8 served by drone.
Drone fly from 5 at stage 3 to serve 8 and then fly back to 6 at stage 4. 
Truck arcs during this sortie: 5--->6
Truck travel time from stage 3 to 4 is: 15.5317
Total drone travel time: 13.0144
Drone arrival time: 64.0993
Truck arrival time: 66.6166
Truck departure time = max(d/a, t/a) plus (sl/sr): 68.6166
Customer 9 served by drone.
Drone fly from 6 at stage 6 to serve 9 and then fly back to 5 at stage 7. 
Truck arcs during this sortie: 6--->5
Truck travel time from stage 6 to 7 is: 15.5317
Total drone travel time: 15.1973
Drone arrival time: 115.632
Truck arrival time: 115.966
Truck departure time = max(d/a, t/a) plus (sl/sr): 116.966
Customer 10 served by drone.
Drone fly from 4 at stage 5 to serve 10 and then fly back to 6 at stage 6. 
Truck arcs during this sortie: 4--->6
Truck travel time from stage 5 to 6 is: 12.424
Total drone travel time: 15.3938
Drone arrival time: 98.4345
Truck arrival time: 95.4646
Truck departure time = max(d/a, t/a) plus (sl/sr): 100.434
Done!
-------------------------Re-calculated objective-----------------------
166.978
------------------------------------------------------------------------
Solve time: 5.361
Node 1 was revisited 1 times!
Node 5 was revisited 1 times!
Node 6 was revisited 1 times!
OBJECTIVE VALUE: 166.978, NUMBER OF SORTIES: 6.
Number of revisit: 3
In write mode
